20
80
0 1 20 2
0 2 20 2
0 3 2 4
0 4 2 4
0 5 2 4
0 6 2 4
0 7 2 4
0 8 2 4
0 9 2 4
0 10 2 4
0 11 2 4
0 12 2 4
0 13 2 4
0 14 2 4
0 15 2 4
0 16 2 4
0 17 2 4
0 18 2 4
0 19 2 4
1 2 20 2
1 3 2 4
1 4 2 4
1 5 2 4
1 6 2 4
1 7 2 4
1 8 2 4
1 9 2 4
1 10 2 4
1 11 2 4
1 12 2 4
1 13 2 4
1 14 2 4
1 15 2 4
1 16 2 4
1 17 2 4
1 18 2 4
1 19 2 4
2 3 2 4
2 4 2 4
2 5 2 4
2 6 2 4
2 7 2 4
2 8 2 4
2 9 2 4
2 10 2 4
2 11 2 4
2 12 2 4
2 13 2 4
2 14 2 4
2 15 2 4
2 16 2 4
2 17 2 4
2 18 2 4
2 19 2 4
3 4 20 2
3 5 20 2
3 6 2 4
3 7 2 4
3 8 2 4
3 9 2 4
3 10 2 4
3 11 2 4
3 12 2 4
3 13 2 4
3 14 2 4
3 15 2 4
3 16 2 4
3 17 2 4
3 18 2 4
3 19 2 4
4 5 20 2
4 6 2 4
4 7 2 4
4 8 2 4
4 9 2 4
4 10 2 4
4 11 2 4
4 12 2 4
4 13 2 4
4 14 2 4
4 15 2 4
4 16 2 4
4 17 2 4
4 18 2 4
4 19 2 4
5 6 2 4
5 7 2 4
5 8 2 4
5 9 2 4
5 10 2 4
5 11 2 4
5 12 2 4
5 13 2 4
5 14 2 4
5 15 2 4
5 16 2 4
5 17 2 4
5 18 2 4
5 19 2 4
6 7 20 2
6 8 20 2
6 9 2 4
6 10 2 4
6 11 2 4
6 12 2 4
6 13 2 4
6 14 2 4
6 15 2 4
6 16 2 4
6 17 2 4
6 18 2 4
6 19 2 4
7 8 20 2
7 9 2 4
7 10 2 4
7 11 2 4
7 12 2 4
7 13 2 4
7 14 2 4
7 15 2 4
7 16 2 4
7 17 2 4
7 18 2 4
7 19 2 4
8 9 2 4
8 10 2 4
8 11 2 4
8 12 2 4
8 13 2 4
8 14 2 4
8 15 2 4
8 16 2 4
8 17 2 4
8 18 2 4
8 19 2 4
9 10 20 2
9 11 20 2
9 12 2 4
9 13 2 4
9 14 2 4
9 15 2 4
9 16 2 4
9 17 2 4
9 18 2 4
9 19 2 4
10 11 20 2
10 12 2 4
10 13 2 4
10 14 2 4
10 15 2 4
10 16 2 4
10 17 2 4
10 18 2 4
10 19 2 4
11 12 2 4
11 13 2 4
11 14 2 4
11 15 2 4
11 16 2 4
11 17 2 4
11 18 2 4
11 19 2 4
12 13 20 2
12 14 20 2
12 15 2 4
12 16 2 4
12 17 2 4
12 18 2 4
12 19 2 4
13 14 20 2
13 15 2 4
13 16 2 4
13 17 2 4
13 18 2 4
13 19 2 4
14 15 2 4
14 16 2 4
14 17 2 4
14 18 2 4
14 19 2 4
15 16 20 2
15 17 20 2
15 18 2 4
15 19 2 4
16 17 20 2
16 18 2 4
16 19 2 4
17 18 2 4
17 19 2 4
18 19 20 2